
Gurobi 6.5.2 (win64) logging started 07/23/16 02:28:31


Gurobi 6.5.2 (win64) logging started 07/23/16 02:28:31

Optimize a model with 5885 rows, 900 columns and 13571 nonzeros
Coefficient statistics:
  Matrix range    [4e-06, 1e+03]
  Objective range [1e+00, 1e+00]
  Bounds range    [1e+00, 1e+00]
  RHS range       [1e+00, 1e+03]
Presolve removed 5862 rows and 876 columns
Presolve time: 0.00s
Presolved: 23 rows, 24 columns, 72 nonzeros
Variable types: 24 continuous, 0 integer (0 binary)

Root relaxation: objective 1.408259e+02, 17 iterations, 0.00 seconds

    Nodes    |    Current Node    |     Objective Bounds      |     Work
 Expl Unexpl |  Obj  Depth IntInf | Incumbent    BestBd   Gap | It/Node Time

*    0     0               0     140.8258878  140.82589  0.00%     -    0s

Explored 0 nodes (17 simplex iterations) in 0.01 seconds
Thread count was 8 (of 8 available processors)

Optimal solution found (tolerance 1.00e-04)
Best objective 1.408258878070e+02, best bound 1.408258878070e+02, gap 0.0%

Wrote requested result file 'H2\instance1\\Results1EC_Sol2.lp'


Gurobi 6.5.2 (win64) logging started 07/23/16 02:30:18


Gurobi 6.5.2 (win64) logging started 07/23/16 02:30:18

Optimize a model with 5885 rows, 900 columns and 13571 nonzeros
Coefficient statistics:
  Matrix range    [4e-06, 1e+03]
  Objective range [1e+00, 1e+00]
  Bounds range    [1e+00, 1e+00]
  RHS range       [1e+00, 1e+03]
Presolve removed 5862 rows and 876 columns
Presolve time: 0.00s
Presolved: 23 rows, 24 columns, 72 nonzeros
Variable types: 24 continuous, 0 integer (0 binary)

Root relaxation: objective 1.408259e+02, 17 iterations, 0.00 seconds

    Nodes    |    Current Node    |     Objective Bounds      |     Work
 Expl Unexpl |  Obj  Depth IntInf | Incumbent    BestBd   Gap | It/Node Time

*    0     0               0     140.8258878  140.82589  0.00%     -    0s

Explored 0 nodes (17 simplex iterations) in 0.01 seconds
Thread count was 8 (of 8 available processors)

Optimal solution found (tolerance 1.00e-04)
Best objective 1.408258878070e+02, best bound 1.408258878070e+02, gap 0.0%

Wrote requested result file 'H2\instance1\\Results1EC_Sol2.lp'

